895040
0 20 6578
20 9 5744
9 10 5506
10 34 5412
34 1 10541
1 17 16361
17 26 12605
26 18 17773
18 39 13572
39 3 28500
3 21 23621
21 23 45979
23 8 177197
8 2 153162
2 13 30026
13 16 42390
16 15 43848
15 14 36815
14 7 26226
7 5 34947
5 33 56283
33 11 39714
11 32 3966
32 25 15457
25 4 32088
4 31 3289
31 19 24201
19 12 31691
12 27 6411
27 30 12751
30 36 11155
36 29 941
29 38 6375
38 24 4093
24 22 11530
22 37 7448
37 28 744
28 35 16894
35 6 11793
6 0 18909
